data/results/2026_03_24_19_11_29_set_big_5-7_big_5-7_s012_g003_max.sol
# Objective value = 239
c_n0n3n4n6n9n10 6
c_n1n2n5n6n8n11 6
c_n1n6n9 2
c_n4n6n11 1
c_n6n8n10 2
c_n3n4n6n9n10 4
c_n0n4n6n9n10 4
c_n0n3n6n9n10 5
c_n0n3n4n9n10 5
c_n0n3n4n6n10 4
c_n0n3n4n6n9 4
c_n2n5n6n8n11 5
c_n1n5n6n8n11 4
c_n1n2n6n8n11 4
c_n1n2n5n8n11 5
c_n1n2n5n6n11 4
c_n1n2n5n6n8 4
c_n4n6n9n10 2
c_n3n6n9n10 4
c_n3n4n9n10 3
c_n3n4n6n10 2
c_n3n4n6n9 3
c_n0n6n9n10 3
c_n0n4n9n10 3
c_n0n4n6n10 3
c_n0n4n6n9 3
c_n0n3n9n10 4
c_n0n3n6n10 3
c_n0n3n6n9 3
c_n0n3n4n10 4
c_n0n3n4n9 3
c_n0n3n4n6 2
c_n5n6n8n11 3
c_n2n6n8n11 4
c_n2n5n8n11 4
c_n2n5n6n11 3
c_n2n5n6n8 3
c_n1n6n8n11 2
c_n1n5n8n11 3
c_n1n5n6n11 3
c_n1n5n6n8 3
c_n1n2n8n11 3
c_n1n2n6n11 2
c_n1n2n6n8 3
c_n1n2n5n11 4
c_n1n2n5n8 3
c_n1n2n5n6 2
c_n6n9n10 2
c_n4n9n10 1
c_n4n6n10 1
c_n4n6n9 2
c_n3n9n10 3
c_n3n6n10 2
c_n3n6n9 3
c_n3n4n10 2
c_n3n4n9 2
c_n3n4n6 1
c_n0n9n10 2
c_n0n6n10 2
c_n0n6n9 2
c_n0n4n10 3
c_n0n4n9 2
c_n0n4n6 2
c_n0n3n10 3
c_n0n3n9 2
c_n0n3n6 1
c_n0n3n4 2
c_n6n8n11 2
c_n5n8n11 2
c_n5n6n11 2
c_n5n6n8 2
c_n2n8n11 3
c_n2n6n11 2
c_n2n6n8 3
c_n2n5n11 3
c_n2n5n8 2
c_n2n5n6 1
c_n1n8n11 1
c_n1n6n11 1
c_n1n6n8 2
c_n1n5n11 3
c_n1n5n8 2
c_n1n5n6 2
c_n1n2n11 2
c_n1n2n8 2
c_n1n2n6 1
c_n1n2n5 2
y_n0n1 1
y_n1n2 0
y_n0n2 1
y_n1n3 0
y_n0n3 1
y_n1n4 0
y_n0n4 0
y_n1n5 0
y_n0n5 1
y_n1n6 0
y_n0n6 1
y_n1n7 0
y_n0n7 0
y_n1n8 0
y_n0n8 1
y_n1n9 0
y_n0n9 1
y_n1n10 0
y_n0n10 1
y_n1n11 0
y_n0n11 1
y_n2n3 0
y_n2n4 0
y_n2n5 1
y_n2n6 0
y_n2n7 0
y_n2n8 0
y_n2n9 0
y_n2n10 0
y_n2n11 1
y_n3n4 0
y_n3n5 1
y_n3n6 1
y_n3n7 0
y_n3n8 1
y_n3n9 1
y_n3n10 0
y_n3n11 1
y_n4n5 1
y_n4n6 1
y_n4n7 0
y_n4n8 1
y_n4n9 1
y_n4n10 1
y_n4n11 1
y_n5n6 0
y_n5n7 0
y_n5n8 0
y_n5n9 0
y_n5n10 0
y_n5n11 0
y_n6n7 0
y_n6n8 1
y_n6n9 0
y_n6n10 0
y_n6n11 1
y_n7n8 1
y_n7n9 1
y_n7n10 1
y_n7n11 1
y_n8n9 0
y_n8n10 0
y_n8n11 1
y_n9n10 0
y_n9n11 1
y_n10n11 1
pos_n0 2
pos_n1 11
pos_n2 8
pos_n3 4
pos_n4 1
pos_n5 10
pos_n6 6
pos_n7 0
pos_n8 7
pos_n9 5
pos_n10 3
pos_n11 9
z_n3n9 1
z_n9n10 0
z_n4n9 0
z_n6n9 1
z_n3n10 1
z_n3n4 0
z_n3n6 0
z_n4n10 0
z_n6n10 0
z_n4n6 0
z_n2n6 0
z_n2n5 0
z_n2n11 1
z_n2n8 1
z_n2n9 0
z_n5n6 0
z_n6n11 0
z_n6n8 1
z_n5n11 1
z_n5n8 0
z_n5n9 0
z_n8n11 0
z_n9n11 0
z_n8n9 0
z_n1n6 0
z_n1n5 1
z_n1n11 0
z_n1n8 0
z_n0n9 0
z_n0n10 1
z_n0n4 1
z_n0n6 0
z_n0n3 0
z_n3n11 0
z_n10n11 0
z_n0n11 0
z_n1n2 0
z_n1n9 0
z_n2n3 0
z_n1n3 0
z_n3n5 0
z_n3n8 0
z_n2n10 0
z_n1n10 0
z_n5n10 0
z_n8n10 0
z_n0n2 0
z_n0n1 0
z_n0n5 0
z_n0n8 0
z_n2n4 0
z_n1n4 0
z_n4n5 0
z_n4n11 0
z_n4n8 0
z_n2n7 0
z_n1n7 0
z_n6n7 0
z_n5n7 0
z_n7n8 0
z_n4n7 0
