logs/2026_03_24_19_11_29_set_big_5-7_big_5-7_s012_g003_max.log
[2026-03-24T19:11:29.429Z] Pipeline "set_big_5-7_big_5-7_s012_g003" → 2026_03_24_19_11_29_set_big_5-7_big_5-7_s012_g003_max.sol
Set parameter WLSAccessID
Set parameter WLSSecret
Set parameter LicenseID to value 2792458
Set parameter LogFile to value "gurobi.log"
Using license file /root/gurobi.lic
Academic license 2792458 - for non-commercial use only - registered to an___@studenti.unipg.it

Gurobi Optimizer version 13.0.1 build v13.0.1rc0 (linux64 - "Ubuntu 24.04.4 LTS")
Copyright (c) 2026, Gurobi Optimization, LLC

Warning: Duplicate section found (read 'binary') - Is a variable name equal to an LP file format keyword?
Warning: Duplicate section found (read 'binary') - Is a variable name equal to an LP file format keyword?
Warning: Duplicate section found (read 'binary') - Is a variable name equal to an LP file format keyword?
Warning: Duplicate section found (read 'binary') - Is a variable name equal to an LP file format keyword?
Warning: Duplicate section found (read 'binary') - Is a variable name equal to an LP file format keyword?
Warning: Duplicate section found (read 'binary') - Is a variable name equal to an LP file format keyword?
Warning: Duplicate section found (read 'binary') - Is a variable name equal to an LP file format keyword?
Warning: Duplicate section found (read 'binary') - Is a variable name equal to an LP file format keyword?
Warning: Duplicate section found (read 'binary') - Is a variable name equal to an LP file format keyword?
Warning: Duplicate section found (read 'binary') - Is a variable name equal to an LP file format keyword?
Warning: Further warnings of this type will be omitted.
Read LP format model from file /root/bgw/data/uploads/2026_03_24_19_11_29_set_big_5-7_big_5-7_s012_g003_max.lp
Reading time = 0.00 seconds
: 1263 rows, 226 columns, 3458 nonzeros

Using Gurobi shared library /opt/gurobi1301/linux64/lib/libgurobi.so.13.0.1

CPU model: AMD EPYC-Genoa Processor, instruction set [SSE2|AVX|AVX2|AVX512]
Thread count: 16 physical cores, 16 logical processors, using up to 16 threads

Academic license 2792458 - for non-commercial use only - registered to an___@studenti.unipg.it
Optimize a model with 1263 rows, 226 columns and 3458 nonzeros (Max)
Model fingerprint: 0xc1c13189
Model has 87 linear objective coefficients
Variable types: 99 continuous, 127 integer (127 binary)
Coefficient statistics:
  Matrix range     [1e+00, 1e+01]
  Objective range  [1e+00, 1e+00]
  Bounds range     [1e+00, 1e+00]
  RHS range        [1e+00, 1e+01]

Found heuristic solution: objective 87.0000000
Presolve removed 746 rows and 116 columns
Presolve time: 0.00s
Presolved: 517 rows, 110 columns, 1650 nonzeros
Variable types: 0 continuous, 110 integer (99 binary)
Found heuristic solution: objective 147.0000000

Root relaxation: objective 5.460000e+02, 135 iterations, 0.00 seconds (0.00 work units)

    Nodes    |    Current Node    |     Objective Bounds      |     Work
 Expl Unexpl |  Obj  Depth IntInf | Incumbent    BestBd   Gap | It/Node Time

     0     0  546.00000    0   63  147.00000  546.00000   271%     -    0s
H    0     0                     148.0000000  546.00000   269%     -    0s
H    0     0                     163.0000000  546.00000   235%     -    0s
H    0     0                     177.0000000  546.00000   208%     -    0s
H    0     0                     193.0000000  546.00000   183%     -    0s
     0     0  546.00000    0   64  193.00000  546.00000   183%     -    0s
H    0     0                     208.0000000  546.00000   162%     -    0s
     0     0  546.00000    0   63  208.00000  546.00000   162%     -    0s
     0     0  546.00000    0   63  208.00000  546.00000   162%     -    0s
H    0     0                     209.0000000  546.00000   161%     -    0s
     0     0  546.00000    0   63  209.00000  546.00000   161%     -    0s
H    0     0                     210.0000000  546.00000   160%     -    0s
     0     0  546.00000    0   63  210.00000  546.00000   160%     -    0s
     0     0  546.00000    0   61  210.00000  546.00000   160%     -    0s
     0     0  546.00000    0   64  210.00000  546.00000   160%     -    0s
     0     0  546.00000    0   64  210.00000  546.00000   160%     -    0s
     0     0  546.00000    0   64  210.00000  546.00000   160%     -    0s
     0     0  546.00000    0   62  210.00000  546.00000   160%     -    0s
H    0     0                     223.0000000  546.00000   145%     -    0s
H    0     0                     224.0000000  546.00000   144%     -    0s
     0     0  546.00000    0   65  224.00000  546.00000   144%     -    0s
     0     0  546.00000    0   60  224.00000  546.00000   144%     -    0s
     0     0  546.00000    0   60  224.00000  546.00000   144%     -    0s
     0     0  546.00000    0   60  224.00000  546.00000   144%     -    0s
     0     2  546.00000    0   60  224.00000  546.00000   144%     -    0s
H  348   295                     237.0000000  544.50000   130%  28.5    0s
H  471   393                     238.0000000  544.45000   129%  24.8    0s
H 1113   819                     239.0000000  543.00000   127%  21.5    0s
 120189 39308  402.40000   43   44  239.00000  412.73333  72.7%  16.0    5s
 328843 106108  264.33333   56    3  239.00000  377.10000  57.8%  14.9   10s
 536770 164038  284.12000   55   39  239.00000  362.16667  51.5%  14.3   15s
 761916 218912  334.16000   47   43  239.00000  351.64444  47.1%  13.9   20s
 977303 272013     cutoff   58       239.00000  344.07143  44.0%  13.7   25s
 1208732 317410 infeasible   58       239.00000  337.91333  41.4%  13.3   30s
 1424363 358722  283.70000   53   30  239.00000  331.10000  38.5%  13.2   35s
 1638664 400065  264.18571   57   43  239.00000  328.05000  37.3%  13.1   40s
 1854067 432083  312.60000   51   36  239.00000  324.61429  35.8%  12.9   45s
 2064746 456168  307.10000   49   44  239.00000  319.60000  33.7%  12.8   50s
 2269757 487758  282.90000   55   36  239.00000  316.30000  32.3%  12.8   55s
 2470682 517235  275.90000   58    5  239.00000  314.46667  31.6%  12.8   60s
 2688189 543002  299.24000   53   49  239.00000  312.58667  30.8%  12.7   65s
 2908000 563016  304.80000   55   29  239.00000  310.20000  29.8%  12.6   70s
 3121588 573265  297.17000   60   30  239.00000  307.35200  28.6%  12.5   75s
 3327628 584305  242.00000   58   37  239.00000  303.90000  27.2%  12.5   80s
 3534406 606624  257.30000   59   24  239.00000  302.30000  26.5%  12.6   85s
 3747670 625640 infeasible   60       239.00000  301.02000  25.9%  12.6   90s
 3967869 641803  284.70000   52   41  239.00000  299.90000  25.5%  12.5   95s
 4202817 657158  252.90000   61   24  239.00000  298.70000  25.0%  12.5  100s
 4446751 668188  249.30000   57   26  239.00000  297.23333  24.4%  12.4  105s
 4665907 670141 infeasible   59       239.00000  295.80000  23.8%  12.4  110s
 4902199 662715 infeasible   59       239.00000  293.90000  23.0%  12.3  115s
 5139740 649754 infeasible   55       239.00000  291.26667  21.9%  12.2  120s
 5368726 648435 infeasible   59       239.00000  288.65000  20.8%  12.2  125s
 5590270 654825  268.60000   54   32  239.00000  287.50000  20.3%  12.2  130s
 5825795 658093  286.40000   53   36  239.00000  286.49167  19.9%  12.2  135s
 6050776 656263 infeasible   59       239.00000  285.50000  19.5%  12.2  140s
 6284757 651499  269.45000   56   21  239.00000  284.60000  19.1%  12.1  145s
 6496033 642928  265.06667   60    9  239.00000  283.78333  18.7%  12.1  150s
 6725734 628959     cutoff   59       239.00000  282.70000  18.3%  12.1  155s
 6948558 606088 infeasible   58       239.00000  281.60000  17.8%  12.1  160s
 7176764 573958  249.07778   55   34  239.00000  280.20000  17.2%  12.0  165s
 7397590 533228  264.64000   56   15  239.00000  278.16667  16.4%  12.0  170s
 7603580 501464  271.30357   57   20  239.00000  275.48333  15.3%  12.0  175s
 7777335 482164     cutoff   53       239.00000  273.40000  14.4%  12.0  180s
 7978333 463251  255.18750   58   27  239.00000  272.00000  13.8%  12.1  185s
 8171493 442137  268.55333   58   12  239.00000  270.95714  13.4%  12.1  190s
 8363028 417072 infeasible   56       239.00000  270.00000  13.0%  12.1  195s
 8553521 385986  253.10000   60   24  239.00000  269.00000  12.6%  12.1  200s
 8731957 348449 infeasible   59       239.00000  267.78571  12.0%  12.1  205s
 8906676 297404 infeasible   58       239.00000  265.65000  11.2%  12.1  210s
 9053980 253722 infeasible   61       239.00000  262.00000  9.62%  12.2  215s
 9175994 225962 infeasible   60       239.00000  258.85833  8.31%  12.3  220s
 9311770 192265  241.85000   60   10  239.00000  257.11667  7.58%  12.3  225s
 9453026 150053 infeasible   60       239.00000  255.80000  7.03%  12.4  230s
 9611742 82494 infeasible   60       239.00000  252.86667  5.80%  12.4  235s

Cutting planes:
  Gomory: 1

Explored 9731472 nodes (120660690 simplex iterations) in 238.64 seconds (336.16 work units)
Thread count was 16 (of 16 available processors)

Solution count 10: 239 238 237 ... 177

Optimal solution found (tolerance 1.00e-04)
Best objective 2.390000000000e+02, best bound 2.390000000000e+02, gap 0.0000%

Wrote result file '/root/bgw/data/results/2026_03_24_19_11_29_set_big_5-7_big_5-7_s012_g003_max.sol'

